n = 17;
lu = [|-185, 93
      |-175, -96
      |-6, -3
      |-24, -12
      |-143, -136
      |-102, 111
      |101, 166
      |212, 257
      |-154, -152
      |44, 136
      |-173, 103
      |194, 216
      |-164, -116
      |-286, 275
      |-162, 131
      |22, 54
      |15, 188|];
